
Value of objective function: 0

Actual values of the variables:
pL1_div_from_law                0
comp_pos0                       0
comp_neg0                       0
comp_pos1                       0
comp_neg1                       0
comp_pos2                       0
comp_neg2                       0
comp_pos3                       0
comp_neg3                       0
comp_pos4                       0
comp_neg4                       0
comp_pos5                       0
comp_neg5                       0
comp_pos6                       0
comp_neg6                       0
comp_pos7                       0
comp_neg7                       0
comp_pos8                       0
comp_neg8                       0
comp_pos9                       0
comp_neg9                       0
comp_pos10                      0
comp_neg10                      0
comp_pos11                      0
comp_neg11                      0
comp_pos12                      0
comp_neg12                      0
comp_pos13                      0
comp_neg13                      0
z_c0_t0               1.32138e+10
p0_c0_t0              3.44293e+09
p1_c0_t0              3.72466e+09
p2_c0_t0              5.73907e+09
p3_c0_t0               3.0718e+08
diff0                           0
normdiff0                       0
z_c0_t1               1.47752e+10
p0_c0_t1               2.9618e+09
p1_c0_t1               4.0946e+09
p2_c0_t1              6.50216e+09
p3_c0_t1              1.21664e+09
diff1                           0
normdiff1                       0
z_c1_t0               1.65566e+10
p0_c1_t0              3.48104e+09
p1_c1_t0              4.73848e+09
p2_c1_t0              8.20245e+09
p3_c1_t0              1.34609e+08
diff2                           0
normdiff2                       0
z_c1_t1               1.94959e+10
p0_c1_t1              3.50785e+09
p1_c1_t1               6.7411e+09
p2_c1_t1              8.81233e+09
p3_c1_t1              4.34613e+08
diff3                           0
normdiff3                       0
z_c2_t0               7.24754e+09
p0_c2_t0              1.18769e+09
p1_c2_t0              1.95295e+09
p2_c2_t0              3.98791e+09
p3_c2_t0              1.18992e+08
diff4                           0
normdiff4                       0
z_c2_t1               7.97123e+09
p0_c2_t1              9.64064e+08
p1_c2_t1              2.26014e+09
p2_c2_t1              4.45241e+09
p3_c2_t1               2.9461e+08
diff5                           0
normdiff5                       0
z_c3_t0               1.22612e+10
p0_c3_t0              2.12754e+09
p1_c3_t0              3.30573e+09
p2_c3_t0              5.83602e+09
p3_c3_t0              9.91884e+08
diff6                           0
normdiff6                       0
z_c3_t1               1.42798e+10
p0_c3_t1              2.43028e+09
p1_c3_t1              3.38547e+09
p2_c3_t1              5.95929e+09
p3_c3_t1              2.50474e+09
diff7                           0
normdiff7                       0
z_c4_t0               7.97197e+09
p0_c4_t0              9.48436e+08
p1_c4_t0              3.69914e+09
p2_c4_t0              3.22886e+09
p3_c4_t0              9.55292e+07
diff8                           0
normdiff8                       0
z_c4_t1                8.9819e+09
p0_c4_t1              9.80625e+08
p1_c4_t1              3.37186e+09
p2_c4_t1              4.42831e+09
p3_c4_t1              2.01107e+08
diff9                           0
normdiff9                       0
z_c5_t0               1.00642e+10
p0_c5_t0              1.67253e+09
p1_c5_t0              3.09033e+09
p2_c5_t0              5.25097e+09
p3_c5_t0              5.03208e+07
diff10                          0
normdiff10                      0
z_c5_t1                1.2016e+10
p0_c5_t1              1.22175e+09
p1_c5_t1              3.09166e+09
p2_c5_t1              7.37162e+09
p3_c5_t1              3.30989e+08
diff11                          0
normdiff11                      0
z_c6_t0               1.81204e+10
p0_c6_t0              2.99373e+09
p1_c6_t0              3.94317e+09
p2_c6_t0              1.10536e+10
p3_c6_t0              1.29811e+08
diff12                          0
normdiff12                      0
z_c6_t1               2.06345e+10
p0_c6_t1              3.25095e+09
p1_c6_t1              3.61424e+09
p2_c6_t1              1.34882e+10
p3_c6_t1               2.8114e+08
diff13                          0
normdiff13                      0
